proyfinal/src/viki/013/andrea/andrea-localstore/experimentInOfficeAgust.take6/worker_11/3bf7a4ed-c0e0-444d-a178-0cd6be7e6331.als.cnf.out
Reading from standard input... Use '--help' for help.
============================[ Problem Statistics ]=============================
|                                                                             |
|  Number of variables:         87638                                         |
|  Number of clauses:          161767                                         |
|  Parse time:                   0.03 s                                       |
|                                                                             |
============================[ Search Statistics ]==============================
| Conflicts |          ORIGINAL         |          LEARNT          | Progress |
|           |    Vars  Clauses Literals |    Limit  Clauses Lit/Cl |          |
===============================================================================
|       100 |   63840   110378   275949 |    40471      100     15 | 27.155 % |
|       250 |   63812   110262   275684 |    44519      249     51 | 27.187 % |
|       475 |   63791   110218   275594 |    48971      471     55 | 27.211 % |
|       812 |   63771   110134   275401 |    53868      805     57 | 27.234 % |
|      1318 |   63771   110056   275220 |    59254     1311     70 | 27.234 % |
|      2077 |   63771   110056   275220 |    65180     2070     62 | 27.234 % |
|      3216 |   63771   110056   275220 |    71698     3209     72 | 27.234 % |
|      4924 |   63753   109982   275049 |    78868     4916     79 | 27.254 % |
|      7486 |   63729   109882   274820 |    86755     7477     84 | 27.282 % |
|     11330 |   50021    68893   173907 |    95430    10796     81 | 42.923 % |
|     17096 |   49449    68178   172249 |   104973    15194     67 | 43.576 % |
===============================================================================
restarts              : 63
conflicts             : 17517          (6812 /sec)
decisions             : 51662          (0.00 % random) (20090 /sec)
propagations          : 27026480       (10510026 /sec)
conflict literals     : 1183318        (50.41 % deleted)
Memory used           : 28.23 MB
CPU time              : 2.5715 s

UNSATISFIABLE
